803.53
0 63 23 56 43 41 42 64 22 61 21 74 0 
0 38 11 65 66 59 14 19 0 
0 58 10 31 25 55 18 50 24 49 16 0 
0 5 47 36 69 71 60 70 20 37 15 57 13 54 0 
0 17 40 3 44 32 9 39 72 12 0 
0 45 29 48 28 62 1 73 33 2 0 
0 34 46 27 52 8 35 53 7 26 0 
0 67 4 68 6 51 30 75 0 
